GLPSOL--GLPK LP/MIP Solver 5.0
Parameter(s) specified in the command line:
 --lp ../modeles/2_49.lp --log 2_49.log
Reading problem data from '../modeles/2_49.lp'...
107 rows, 200 columns, 696 non-zeros
98 integer variables, all of which are binary
315 lines were read
GLPK Integer Optimizer 5.0
107 rows, 200 columns, 696 non-zeros
98 integer variables, all of which are binary
Preprocessing...
100 constraint coefficient(s) were reduced
107 rows, 198 columns, 694 non-zeros
98 integer variables, all of which are binary
Scaling...
 A: min|aij| =  1.666e-03  max|aij| =  4.000e+00  ratio =  2.401e+03
GM: min|aij| =  1.429e-01  max|aij| =  7.000e+00  ratio =  4.900e+01
EQ: min|aij| =  2.041e-02  max|aij| =  1.000e+00  ratio =  4.900e+01
2N: min|aij| =  1.562e-02  max|aij| =  1.754e+00  ratio =  1.122e+02
Constructing initial basis...
Size of triangular part is 107
Solving LP relaxation...
GLPK Simplex Optimizer 5.0
107 rows, 198 columns, 694 non-zeros
      0: obj =   4.000000000e+00 inf =   9.500e+00 (5)
     17: obj =   4.985416667e-01 inf =   0.000e+00 (0)
*    61: obj =  -1.412981859e+00 inf =   5.390e-16 (0)
OPTIMAL LP SOLUTION FOUND
Integer optimization begins...
Long-step dual simplex will be used
+    61: mip =     not found yet >=              -inf        (1; 0)
+    62: >>>>>  -1.412981859e+00 >=  -1.412981859e+00   0.0% (2; 0)
+    62: mip =  -1.412981859e+00 >=     tree is empty   0.0% (0; 3)
INTEGER OPTIMAL SOLUTION FOUND
Time used:   0.0 secs
Memory used: 0.3 Mb (336976 bytes)
